(set-logic HORN)
(declare-fun state (Int (Array Int Int) (Array Int Int) (Array Int Int) (Array Int Int) Int Int (Array Int Int) (Array Int Int) Int Int Int Int Int Int Int Int Int Int Int Int Bool Bool Bool Bool Bool (Array Int Int)) Bool)
(assert (forall ((|A_12| Int) (|B_12| (Array Int Int)) (|C_12| (Array Int Int)) (|D_12| (Array Int Int)) (|E_12| (Array Int Int)) (|F_12| Int) (|G_12| Int) (|H_12| (Array Int Int)) (|I_12| (Array Int Int)) (|J_12| Int) (|K_12| Int) (|L_12| Int) (|M_12| Int) (|N_12| Int) (|O_12| Int) (|P_12| Int) (|Q_12| Int) (|R_12| Int) (|S_12| Int) (|T_12| Int) (|U_12| Int) (|W_6| Bool) (|.loc.5| Bool) (|.loc.6| Bool) (|.loc.7| Bool) (|.loc.8| Bool) (|W_0| (Array Int Int)) (|.x.274| Int) (|.x.272| (Array Int Int)) (|.x.270| Int) (|.x.268| (Array Int Int)) (|.x.264| Int) (|.x.266| (Array Int Int)) (|.x.265| (Array Int Int)) (|V_12| Bool) (|.x.275| Int) (|.x.276| Int) (|.x.277| Int) (|.x.279| Int) (|.loc.12| Bool) (|.loc.10| Bool) (|.loc.11| Bool) (|.x.280| Int) (|.x.278| Int) (|.x.283| Int) (|.loc.9| Bool) (|.x.284| Int) (|.x.282| Int) (|.x.281| Int) (|.x.267| (Array Int Int)) (|.x.273| Int) (|.x.269| Int) (|.x.271| (Array Int Int)) (|.xtv.1| (Array Int Int))) (=> (and (and (and (and .loc.5 (not .loc.6)) (not .loc.7)) (not .loc.8)) (and (and (and (and (and (= D_12 E_12) (not W_6)) (= F_12 G_12)) (= J_12 K_12)) (= H_12 I_12)) (= B_12 C_12))) (state |A_12| |B_12| |C_12| |D_12| |E_12| |F_12| |G_12| |H_12| |I_12| |J_12| |K_12| |L_12| |M_12| |N_12| |O_12| |P_12| |Q_12| |R_12| |S_12| |T_12| |U_12| |W_6| |.loc.5| |.loc.6| |.loc.7| |.loc.8| |W_0|))))
(assert (forall ((|A_12| Int) (|B_12| (Array Int Int)) (|C_12| (Array Int Int)) (|D_12| (Array Int Int)) (|E_12| (Array Int Int)) (|F_12| Int) (|G_12| Int) (|H_12| (Array Int Int)) (|I_12| (Array Int Int)) (|J_12| Int) (|K_12| Int) (|L_12| Int) (|M_12| Int) (|N_12| Int) (|O_12| Int) (|P_12| Int) (|Q_12| Int) (|R_12| Int) (|S_12| Int) (|T_12| Int) (|U_12| Int) (|W_6| Bool) (|.loc.5| Bool) (|.loc.6| Bool) (|.loc.7| Bool) (|.loc.8| Bool) (|W_0| (Array Int Int)) (|.x.274| Int) (|.x.272| (Array Int Int)) (|.x.270| Int) (|.x.268| (Array Int Int)) (|.x.264| Int) (|.x.266| (Array Int Int)) (|.x.265| (Array Int Int)) (|V_12| Bool) (|.x.275| Int) (|.x.276| Int) (|.x.277| Int) (|.x.279| Int) (|.loc.12| Bool) (|.loc.10| Bool) (|.loc.11| Bool) (|.x.280| Int) (|.x.278| Int) (|.x.283| Int) (|.loc.9| Bool) (|.x.284| Int) (|.x.282| Int) (|.x.281| Int) (|.x.267| (Array Int Int)) (|.x.273| Int) (|.x.269| Int) (|.x.271| (Array Int Int)) (|.xtv.1| (Array Int Int))) (=> (and (state |A_12| |B_12| |C_12| |D_12| |E_12| |F_12| |G_12| |H_12| |I_12| |J_12| |K_12| |L_12| |M_12| |N_12| |O_12| |P_12| |Q_12| |R_12| |S_12| |T_12| |U_12| |W_6| |.loc.5| |.loc.6| |.loc.7| |.loc.8| |W_0|) (let ((.def_37 (not .loc.6))) (let ((.def_39 (not .loc.7))) (let ((.def_74 (= B_12 .x.265))) (let ((.def_78 (= L_12 .x.275))) (let ((.def_81 (= M_12 .x.276))) (let ((.def_84 (= N_12 .x.277))) (let ((.def_87 (= P_12 .x.279))) (let ((.def_89 (not .loc.5))) (let ((.def_100 (= W_6 V_12))) (let ((.def_107 (not .loc.10))) (let ((.def_110 (not .loc.11))) (let ((.def_113 (= O_12 0))) (let ((.def_117 (and .def_84 (and .def_81 (and .def_74 .def_78))))) (let ((.def_118 (and .def_87 .def_117))) (let ((.def_123 (not .loc.12))) (let ((.def_129 (= Q_12 .x.280))) (let ((.def_131 (= O_12 .x.278))) (let ((.def_134 (= T_12 .x.283))) (let ((.def_137 (not .loc.9))) (let ((.def_144 (select D_12 N_12))) (let ((.def_148 (<= 100000 U_12))) (let ((.def_169 (= U_12 .x.284))) (let ((.def_171 (= S_12 .x.282))) (let ((.def_181 (and .def_87 (and .def_117 .def_131)))) (let ((.def_197 (and .def_134 (and .def_171 (and .def_129 .def_181))))) (let ((.def_208 (and W_6 .def_74))) (let ((.def_217 (and .def_169 (and .def_134 (and .def_171 (and .def_129 (and .def_87 (and .def_131 (and .def_84 (and .def_81 (and .def_78 .def_208))))))))))) (let ((.def_228 (and .def_169 .def_197))) (let ((.def_248 (<= 100000 R_12))) (let ((.def_251 (and .def_89 (and .loc.6 .def_228)))) (let ((.def_261 (= R_12 .x.281))) (let ((.def_263 (= D_12 .x.267))) (and (and (not .loc.8) (and (= K_12 .x.274) (and (= I_12 .x.272) (and (= G_12 .x.270) (and (= E_12 .x.268) (and (= A_12 .x.264) (= C_12 .x.266))))))) (or (and (or (or (or (and (or (or (or (or (or (or (and (or (and (or (and (or (and (and (and (and (and (and .def_74 V_12) .def_78) .def_81) .def_84) .def_87) .def_89) (and (or W_6 (and (= .x.279 0) (= .x.265 (store B_12 N_12 0)))) (and (and .loc.5 (or V_12 (= .x.275 .x.279))) .def_100))) (and (and (and .loc.6 .loc.12) .def_107) .def_110)) (and (or W_6 .def_113) (and .def_37 (and (and .def_100 (and .loc.11 (and .loc.10 (and .loc.5 .def_118)))) .def_123)))) (and (and (and .def_129 .def_131) .def_134) .def_137)) (and (or W_6 (and (= .x.278 .x.283) (and (= .x.280 (select .def_144 (+ M_12 (* 4 U_12)))) (and (not .def_148) (= .x.283 (ite (= .x.280 43) 1 0)))))) (and .def_37 (and .def_123 (and .def_100 (and .def_107 (and .loc.11 (and .loc.9 (and .def_89 .def_118))))))))) (and .loc.7 (and .def_169 .def_171))) (and (or V_12 (= (+ U_12 (* (- 1) .x.284)) (- 1))) (and .def_39 (and .def_37 (and .def_123 (and .def_100 (and .def_107 (and .def_137 (and .loc.11 (and .def_89 (and .def_134 .def_181))))))))))) (and (or W_6 (= .x.284 0)) (and .def_39 (and .def_123 (and .def_100 (and .def_107 (and .def_137 (and .loc.11 (and .loc.6 (and .loc.5 .def_197)))))))))) (and .def_37 (and .def_123 (and .def_100 (and .loc.11 (and .loc.10 (and .loc.9 (and .def_89 (and .loc.7 .def_217))))))))) (and (or W_6 .def_148) (and .def_37 (and .def_123 (and .def_100 (and .loc.11 (and .loc.10 (and .loc.9 (and .def_89 (and .loc.7 .def_228)))))))))) (and .def_39 (and .def_123 (and .def_100 (and .def_110 (and .loc.10 (and .loc.9 (and .def_89 (and .loc.6 .def_217))))))))) (and (or W_6 .def_248) (and .def_39 (and .def_123 (and .def_100 (and .def_110 (and .loc.10 (and .loc.9 .def_251)))))))) (and .def_261 .def_263)) (and (or W_6 (and (= .x.267 (store D_12 N_12 (store .def_144 (+ M_12 (* 4 R_12)) 42))) (and (not .def_248) (= (+ R_12 (* (- 1) .x.281)) (- 1))))) (and .def_39 (and .def_123 (and .def_100 (and .def_110 (and .def_137 (and .loc.10 .def_251)))))))) (and (or W_6 (not .def_113)) (and .def_37 (and .def_123 (and .def_100 (and .def_110 (and .def_107 (and .def_137 (and .loc.7 (and .loc.5 (and .def_169 (and .def_134 (and .def_171 (and .def_261 (and .def_129 (and .def_87 (and .def_131 (and .def_84 (and .def_81 (and .def_78 (and .def_74 .def_263))))))))))))))))))))) (and .def_123 (and .def_100 (and .def_110 (and .def_107 (and .def_137 (and .def_89 (and .loc.7 (and .loc.6 (and .def_169 (and .def_134 (and .def_171 (and .def_261 (and .def_129 (and .def_87 (and .def_131 (and .def_84 (and .def_81 (and .def_78 (and .def_208 .def_263)))))))))))))))))))) (and (= J_12 .x.273) (and (= F_12 .x.269) (= H_12 .x.271)))) (and (or W_6 (and (and (= .x.273 0) (= .x.269 0)) (= W_0 (store B_12 0 0)))) (and (or V_12 (and (and (and (and (and (and (not (<= .x.264 .x.277)) (= .x.281 0)) (not (= .x.277 0))) (= .x.276 0)) (= (select W_0 .x.277) 0)) (= .x.271 (store H_12 .x.277 400000))) (= .x.265 (store W_0 .x.277 1)))) (and .def_39 (and .def_37 (and .def_123 (and .def_100 (and .def_110 (and .def_137 (and .loc.10 (and .loc.5 (and .def_134 (and .def_131 (and .def_78 .def_263)))))))))))))))))))))))))))))))))))))))))))))))) (state |.x.264| |.x.265| |.x.266| |.x.267| |.x.268| |.x.269| |.x.270| |.x.271| |.x.272| |.x.273| |.x.274| |.x.275| |.x.276| |.x.277| |.x.278| |.x.279| |.x.280| |.x.281| |.x.282| |.x.283| |.x.284| |V_12| |.loc.9| |.loc.10| |.loc.11| |.loc.12| |.xtv.1|))))
(assert (forall ((|A_12| Int) (|B_12| (Array Int Int)) (|C_12| (Array Int Int)) (|D_12| (Array Int Int)) (|E_12| (Array Int Int)) (|F_12| Int) (|G_12| Int) (|H_12| (Array Int Int)) (|I_12| (Array Int Int)) (|J_12| Int) (|K_12| Int) (|L_12| Int) (|M_12| Int) (|N_12| Int) (|O_12| Int) (|P_12| Int) (|Q_12| Int) (|R_12| Int) (|S_12| Int) (|T_12| Int) (|U_12| Int) (|W_6| Bool) (|.loc.5| Bool) (|.loc.6| Bool) (|.loc.7| Bool) (|.loc.8| Bool) (|W_0| (Array Int Int)) (|.x.274| Int) (|.x.272| (Array Int Int)) (|.x.270| Int) (|.x.268| (Array Int Int)) (|.x.264| Int) (|.x.266| (Array Int Int)) (|.x.265| (Array Int Int)) (|V_12| Bool) (|.x.275| Int) (|.x.276| Int) (|.x.277| Int) (|.x.279| Int) (|.loc.12| Bool) (|.loc.10| Bool) (|.loc.11| Bool) (|.x.280| Int) (|.x.278| Int) (|.x.283| Int) (|.loc.9| Bool) (|.x.284| Int) (|.x.282| Int) (|.x.281| Int) (|.x.267| (Array Int Int)) (|.x.273| Int) (|.x.269| Int) (|.x.271| (Array Int Int)) (|.xtv.1| (Array Int Int))) (=> (state |A_12| |B_12| |C_12| |D_12| |E_12| |F_12| |G_12| |H_12| |I_12| |J_12| |K_12| |L_12| |M_12| |N_12| |O_12| |P_12| |Q_12| |R_12| |S_12| |T_12| |U_12| |W_6| |.loc.5| |.loc.6| |.loc.7| |.loc.8| |W_0|) (not (and W_6 (and .loc.8 (and (not .loc.7) (and (not .loc.6) (not .loc.5)))))))))
(check-sat)
